g3 1 1 0	# problem 'r1234ze(z)'
 2 0 14 0 0 	# vars, constraints, objectives, ranges, eqns
 0 13 0 0 0 0	# nonlinear constrs, objs; ccons: lin, nonlin, nd, nzlb
 0 0	# network constraints: nonlinear, linear
 0 2 0 	# nonlinear vars in constraints, objectives, both
 0 0 0 1	# linear network variables; functions; arith, flags
 0 0 0 0 0 	# discrete variables: binary, integer, nonlinear (b,c,o)
 0 20 	# nonzeros in Jacobian, obj. gradient
 0 0	# max name lengths: constraints, variables
 0 0 0 0 0	# common exprs: b,c,o,c1,o1
O0 0
o0
o54
4
o43
v0
o2
n3
o43
v1
o2
n4.2365
o43
o0
o16
o44
o2
n-0.047251163559902665
v1
n1
o2
n13.063
o43
o0
o16
o44
o2
n-3.154015167623503
v1
n1
n-2.422442259
O1 0
o5
v0
n-1.0
O2 0
o16
o5
v0
n-2.0
O3 0
o0
o54
3
o2
n3.0
o5
v1
n-1.0
o2
o2
n41.20090013466582
o5
o0
o16
o44
o2
n-3.154015167623503
v1
n1.0
n-1.0
o44
o2
n-3.154015167623503
v1
o2
o2
n0.20017955442152766
o5
o0
o16
o44
o2
n-0.047251163559902665
v1
n1.0
n-1.0
o44
o2
n-0.047251163559902665
v1
n8.190539844
O4 0
o54
5
o2
n-3.0
o5
v1
n-2.0
o2
o2
n-129.94826394447722
o5
o0
o16
o44
o2
n-3.154015167623503
v1
n1.0
n-1.0
o44
o2
n-3.154015167623503
v1
o2
o2
n-129.94826394447722
o5
o0
o16
o44
o2
n-3.154015167623503
v1
n1.0
n-2.0
o44
o2
n-6.308030335247006
v1
o2
o2
n-0.00945871686732004
o5
o0
o16
o44
o2
n-0.047251163559902665
v1
n1.0
n-1.0
o44
o2
n-0.047251163559902665
v1
o2
o2
n-0.00945871686732004
o5
o0
o16
o44
o2
n-0.047251163559902665
v1
n1.0
n-2.0
o44
o2
n-0.09450232711980533
v1
O5 0
o54
16
o2
o2
n0.03194509
o5
v0
n4
v1
o2
o2
n1.394592
v0
o5
v1
n0.333
o2
o2
n-2.300799
v0
v1
o2
o2
n-0.2556693
o5
v0
n2
v1
o2
o2
n0.1282934
o5
v0
n3
o5
v1
n0.38
o2
o2
o2
n-1.335381
v0
o5
v1
n2.85
o44
o16
o5
v0
n2
o2
o2
o2
n-1.366494
o5
v0
n3
o5
v1
n3.16
o44
o16
o5
v0
n2
o2
o2
o2
n0.2004912
o5
v0
n2
o5
v1
n0.607
o44
o2
n-1.0
v0
o2
o2
o2
n-0.6489709
o5
v0
n2
o5
v1
n2.2
o44
o16
o5
v0
n2
o2
o2
o2
n-0.02220033
o5
v0
n7
v1
o44
o2
n-1.0
v0
o2
o2
o2
n1.66538
v0
o5
v1
n1.83
o44
o0
o2
n-1.108
o5
o0
v0
n-0.933
n2
o2
n-0.563
o5
o0
v1
n-1.246
n2
o2
o2
o2
n0.3427048
v0
o5
v1
n3.3
o44
o0
o2
n-1.579
o5
o0
v0
n-0.786
n2
o2
n-1.724
o5
o0
v1
n-1.05
n2
o2
o2
o2
n-0.6510217
o5
v0
n3
o5
v1
n1.9
o44
o0
o2
n-1.098
o5
o0
v0
n-0.496
n2
o2
n-0.806
o5
o0
v1
n-1.0
n2
o2
o2
o2
n-0.5067066
o5
v0
n2
o5
v1
n2.6
o44
o0
o2
n-0.672
o5
o0
v0
n-0.327
n2
o2
n-0.505
o5
o0
v1
n-0.677
n2
o2
o2
o2
n-0.1231787
o5
v0
n3
o5
v1
n2.9
o44
o0
o2
n-3.38
o5
o0
v0
n-0.523
n2
o2
n-26.4
o5
o0
v1
n-1.302
n2
o2
o2
o2
n0.08828106
o5
v0
n2
o5
v1
n3.0
o44
o0
o2
n-1.6
o5
o0
v0
n-0.308
n2
o2
n-8.82
o5
o0
v1
n-1.274
n2
O6 0
o54
26
o2
n1.394592
o5
v1
n0.333
o2
o2
n0.3848802
o5
v0
n2.0
o5
v1
n0.38
o2
o2
n0.12778036
v1
o5
v0
n3.0
o2
o2
n0.3427048
o5
v1
n3.3
o44
o0
o2
n-1.579
o5
o0
v0
n-0.786
n2.0
o2
n-1.724
o5
o0
v1
n-1.05
n2.0
o2
o2
n1.66538
o5
v1
n1.83
o44
o0
o2
n-1.108
o5
o0
v0
n-0.933
n2.0
o2
n-0.563
o5
o0
v1
n-1.246
n2.0
o2
o2
n-1.335381
o5
v1
n2.85
o44
o16
o5
v0
n2.0
o2
o2
n-0.5113386
v0
v1
o2
o2
o2
n2.670762
o5
v0
n2.0
o5
v1
n2.85
o44
o16
o5
v0
n2.0
o2
o2
o2
n0.17656212
v0
o5
v1
n3.0
o44
o0
o2
n-8.82
o5
o0
v1
n-1.274
n2.0
o2
n-1.6
o5
o0
v0
n-0.308
n2.0
o2
o2
o2
n1.2979418
o5
v0
n3.0
o5
v1
n2.2
o44
o16
o5
v0
n2.0
o2
o2
o2
n2.732988
o5
v0
n4.0
o5
v1
n3.16
o44
o16
o5
v0
n2.0
o2
o2
o2
n0.02220033
v1
o5
v0
n7.0
o44
o2
n-1.0
v0
o2
o2
o2
n0.4009824
v0
o5
v1
n0.607
o44
o2
n-1.0
v0
o2
o2
o2
n-1.0134132
v0
o5
v1
n2.6
o44
o0
o2
n-0.505
o5
o0
v1
n-0.677
n2.0
o2
n-0.672
o5
o0
v0
n-0.327
n2.0
o2
o2
o2
n-4.099482
o5
v0
n2.0
o5
v1
n3.16
o44
o16
o5
v0
n2.0
o2
o2
o2
n-0.36953610000000003
o5
v0
n2.0
o5
v1
n2.9
o44
o0
o2
n-26.4
o5
o0
v1
n-1.302
n2.0
o2
n-3.38
o5
o0
v0
n-0.523
n2.0
o2
o2
o2
n-0.15540231000000002
v1
o5
v0
n6.0
o44
o2
n-1.0
v0
o2
o2
o2
n-1.2979418
v0
o5
v1
n2.2
o44
o16
o5
v0
n2.0
o2
o2
o2
n-0.2004912
o5
v0
n2.0
o5
v1
n0.607
o44
o2
n-1.0
v0
o2
o2
o2
n-1.9530651
o5
v0
n2.0
o5
v1
n1.9
o44
o0
o2
n-0.806
o5
o0
v1
n-1.0
n2.0
o2
n-1.098
o5
o0
v0
n-0.496
n2.0
o2
o2
o2
o2
n0.08828106
o5
v0
n2.0
o5
v1
n3.0
o0
o2
n-3.2
v0
n0.9856
o44
o0
o2
n-8.82
o5
o0
v1
n-1.274
n2.0
o2
n-1.6
o5
o0
v0
n-0.308
n2.0
o2
o2
o2
o2
n0.3427048
v0
o5
v1
n3.3
o0
o2
n-3.158
v0
n2.482188
o44
o0
o2
n-1.579
o5
o0
v0
n-0.786
n2.0
o2
n-1.724
o5
o0
v1
n-1.05
n2.0
o2
o2
o2
o2
n1.66538
v0
o5
v1
n1.83
o0
o2
n-2.216
v0
n2.0675280000000003
o44
o0
o2
n-1.108
o5
o0
v0
n-0.933
n2.0
o2
n-0.563
o5
o0
v1
n-1.246
n2.0
o2
o2
o2
o2
n-0.5067066
o5
v0
n2.0
o5
v1
n2.6
o0
o2
n-1.344
v0
n0.43948800000000005
o44
o0
o2
n-0.505
o5
o0
v1
n-0.677
n2.0
o2
n-0.672
o5
o0
v0
n-0.327
n2.0
o2
o2
o2
o2
n-0.6510217
o5
v0
n3.0
o5
v1
n1.9
o0
o2
n-2.196
v0
n1.0892160000000002
o44
o0
o2
n-0.806
o5
o0
v1
n-1.0
n2.0
o2
n-1.098
o5
o0
v0
n-0.496
n2.0
o2
o2
o2
o2
n-0.1231787
o5
v0
n3.0
o5
v1
n2.9
o0
o2
n-6.76
v0
n3.53548
o44
o0
o2
n-26.4
o5
o0
v1
n-1.302
n2.0
o2
n-3.38
o5
o0
v0
n-0.523
n2.0
O7 0
o54
45
o2
o2
n0.7697604
o5
v1
n0.38
v0
o2
o2
n0.17656212
o5
v1
n3.0
o44
o0
o2
n-8.82
o5
o0
v1
n-1.274
n2.0
o2
n-1.6
o5
o0
v0
n-0.308
n2.0
o2
o2
n0.38334108
v1
o5
v0
n2.0
o2
o2
n0.4009824
o5
v1
n0.607
o44
o2
n-1.0
v0
o2
o2
n-1.0134132
o5
v1
n2.6
o44
o0
o2
n-0.505
o5
o0
v1
n-0.677
n2.0
o2
n-0.672
o5
o0
v0
n-0.327
n2.0
o2
o2
n-1.2979418
o5
v1
n2.2
o44
o16
o5
v0
n2.0
o2
o2
o2
n19.130916
o5
v1
n3.16
o5
v0
n3.0
o44
o16
o5
v0
n2.0
o2
o2
o2
n0.6810136704
o5
v1
n2.6
o5
v0
n2.0
o44
o0
o2
n-0.505
o5
o0
v1
n-0.677
n2.0
o2
n-0.672
o5
o0
v0
n-0.327
n2.0
o2
o2
o2
n8.012286
o5
v1
n2.85
v0
o44
o16
o5
v0
n2.0
o2
o2
o2
n6.4897089999999995
o5
v1
n2.2
o5
v0
n2.0
o44
o16
o5
v0
n2.0
o2
o2
o2
n0.832688012
o5
v1
n2.9
o5
v0
n3.0
o44
o0
o2
n-26.4
o5
o0
v1
n-1.302
n2.0
o2
n-3.38
o5
o0
v0
n-0.523
n2.0
o2
o2
o2
n0.31080462000000003
v1
o5
v0
n6.0
o44
o2
n-1.0
v0
o2
o2
o2
n0.3427048
o5
v1
n3.3
o0
o2
n-3.158
v0
n2.482188
o44
o0
o2
n-1.579
o5
o0
v0
n-0.786
n2.0
o2
n-1.724
o5
o0
v1
n-1.05
n2.0
o2
o2
o2
n1.4296436532
o5
v1
n1.9
o5
v0
n3.0
o44
o0
o2
n-0.806
o5
o0
v1
n-1.0
n2.0
o2
n-1.098
o5
o0
v0
n-0.496
n2.0
o2
o2
o2
n0.2004912
o5
v1
n0.607
o5
v0
n2.0
o44
o2
n-1.0
v0
o2
o2
o2
n1.66538
o5
v1
n1.83
o0
o2
n-2.216
v0
n2.0675280000000003
o44
o0
o2
n-1.108
o5
o0
v0
n-0.933
n2.0
o2
n-0.563
o5
o0
v1
n-1.246
n2.0
o2
o2
o2
n-5.341524
o5
v1
n2.85
o5
v0
n3.0
o44
o16
o5
v0
n2.0
o2
o2
o2
n-3.6904820800000007
v0
o5
v1
n1.83
o44
o0
o2
n-1.108
o5
o0
v0
n-0.933
n2.0
o2
n-0.563
o5
o0
v1
n-1.246
n2.0
o2
o2
o2
n-3.6904820800000007
o5
v1
n1.83
o0
v0
n-0.933
o44
o0
o2
n-1.108
o5
o0
v0
n-0.933
n2.0
o2
n-0.563
o5
o0
v1
n-1.246
n2.0
o2
o2
o2
n-0.93241386
v1
o5
v0
n5.0
o44
o2
n-1.0
v0
o2
o2
o2
n-8.198964
o5
v1
n3.16
v0
o44
o16
o5
v0
n2.0
o2
o2
o2
n-0.7390722000000001
o5
v1
n2.9
v0
o44
o0
o2
n-26.4
o5
o0
v1
n-1.302
n2.0
o2
n-3.38
o5
o0
v0
n-0.523
n2.0
o2
o2
o2
n-1.0822617583999998
v0
o5
v1
n3.3
o44
o0
o2
n-1.579
o5
o0
v0
n-0.786
n2.0
o2
n-1.724
o5
o0
v1
n-1.05
n2.0
o2
o2
o2
n-1.0822617583999998
o5
v1
n3.3
o0
v0
n-0.786
o44
o0
o2
n-1.579
o5
o0
v0
n-0.786
n2.0
o2
n-1.724
o5
o0
v1
n-1.05
n2.0
o2
o2
o2
n-0.282499392
o5
v1
n3.0
o5
v0
n2.0
o44
o0
o2
n-8.82
o5
o0
v1
n-1.274
n2.0
o2
n-1.6
o5
o0
v0
n-0.308
n2.0
o2
o2
o2
n-2.5958836
o5
v1
n2.2
o5
v0
n4.0
o44
o16
o5
v0
n2.0
o2
o2
o2
n-5.465976
o5
v1
n3.16
o5
v0
n5.0
o44
o16
o5
v0
n2.0
o2
o2
o2
n-0.02220033
v1
o5
v0
n7.0
o44
o2
n-1.0
v0
o2
o2
o2
n-0.4009824
v0
o5
v1
n0.607
o44
o2
n-1.0
v0
o2
o2
o2
n-0.4009824
o5
v1
n0.607
v0
o44
o2
n-1.0
v0
o2
o2
o2
n-3.9061302
o5
v1
n1.9
v0
o44
o0
o2
n-0.806
o5
o0
v1
n-1.0
n2.0
o2
n-1.098
o5
o0
v0
n-0.496
n2.0
o2
o2
o2
o2
n1.3620273408
v0
o5
v1
n2.6
o0
v0
n-0.327
o44
o0
o2
n-0.505
o5
o0
v1
n-0.677
n2.0
o2
n-0.672
o5
o0
v0
n-0.327
n2.0
o2
o2
o2
o2
n0.17656212
o5
v1
n3.0
v0
o0
o2
n-3.2
v0
n0.9856
o44
o0
o2
n-8.82
o5
o0
v1
n-1.274
n2.0
o2
n-1.6
o5
o0
v0
n-0.308
n2.0
o2
o2
o2
o2
n4.288930959600001
o5
v1
n1.9
o5
v0
n2.0
o0
v0
n-0.496
o44
o0
o2
n-0.806
o5
o0
v1
n-1.0
n2.0
o2
n-1.098
o5
o0
v0
n-0.496
n2.0
o2
o2
o2
o2
n2.498064036
o5
v1
n2.9
o5
v0
n2.0
o0
v0
n-0.523
o44
o0
o2
n-26.4
o5
o0
v1
n-1.302
n2.0
o2
n-3.38
o5
o0
v0
n-0.523
n2.0
o2
o2
o2
o2
n-1.0134132
o5
v1
n2.6
v0
o0
o2
n-1.344
v0
n0.43948800000000005
o44
o0
o2
n-0.505
o5
o0
v1
n-0.677
n2.0
o2
n-0.672
o5
o0
v0
n-0.327
n2.0
o2
o2
o2
o2
n-0.36953610000000003
o5
v1
n2.9
o5
v0
n2.0
o0
o2
n-6.76
v0
n3.53548
o44
o0
o2
n-26.4
o5
o0
v1
n-1.302
n2.0
o2
n-3.38
o5
o0
v0
n-0.523
n2.0
o2
o2
o2
o2
n-0.564998784
v0
o5
v1
n3.0
o0
v0
n-0.308
o44
o0
o2
n-8.82
o5
o0
v1
n-1.274
n2.0
o2
n-1.6
o5
o0
v0
n-0.308
n2.0
o2
o2
o2
o2
n-1.9530651
o5
v1
n1.9
o5
v0
n2.0
o0
o2
n-2.196
v0
n1.0892160000000002
o44
o0
o2
n-0.806
o5
o0
v1
n-1.0
n2.0
o2
n-1.098
o5
o0
v0
n-0.496
n2.0
o2
o2
o2
o2
o2
n0.6810136704
o5
v1
n2.6
o5
v0
n2.0
o0
v0
n-0.327
o0
o2
n-1.344
v0
n0.43948800000000005
o44
o0
o2
n-0.505
o5
o0
v1
n-0.677
n2.0
o2
n-0.672
o5
o0
v0
n-0.327
n2.0
o2
o2
o2
o2
o2
n0.832688012
o5
v1
n2.9
o5
v0
n3.0
o0
v0
n-0.523
o0
o2
n-6.76
v0
n3.53548
o44
o0
o2
n-26.4
o5
o0
v1
n-1.302
n2.0
o2
n-3.38
o5
o0
v0
n-0.523
n2.0
o2
o2
o2
o2
o2
n1.4296436532
o5
v1
n1.9
o5
v0
n3.0
o0
v0
n-0.496
o0
o2
n-2.196
v0
n1.0892160000000002
o44
o0
o2
n-0.806
o5
o0
v1
n-1.0
n2.0
o2
n-1.098
o5
o0
v0
n-0.496
n2.0
o2
o2
o2
o2
o2
n-3.6904820800000007
v0
o5
v1
n1.83
o0
v0
n-0.933
o0
o2
n-2.216
v0
n2.0675280000000003
o44
o0
o2
n-1.108
o5
o0
v0
n-0.933
n2.0
o2
n-0.563
o5
o0
v1
n-1.246
n2.0
o2
o2
o2
o2
o2
n-1.0822617583999998
v0
o5
v1
n3.3
o0
v0
n-0.786
o0
o2
n-3.158
v0
n2.482188
o44
o0
o2
n-1.579
o5
o0
v0
n-0.786
n2.0
o2
n-1.724
o5
o0
v1
n-1.05
n2.0
o2
o2
o2
o2
o2
n-0.282499392
o5
v1
n3.0
o5
v0
n2.0
o0
v0
n-0.308
o0
o2
n-3.2
v0
n0.9856
o44
o0
o2
n-8.82
o5
o0
v1
n-1.274
n2.0
o2
n-1.6
o5
o0
v0
n-0.308
n2.0
O8 0
o54
21
o2
n0.03194509
o5
v0
n4.0
o2
n-0.2556693
o5
v0
n2.0
o2
o2
n0.46439913600000005
v0
o5
v1
n-0.667
o2
o2
n0.048751492
o5
v0
n3.0
o5
v1
n-0.62
o2
o2
n-0.02220033
o5
v0
n7.0
o44
o2
n-1.0
v0
o2
o2
o2
n3.0476454000000004
v0
o5
v1
n0.8300000000000001
o44
o0
o2
n-1.108
o5
o0
v0
n-0.933
n2.0
o2
n-0.563
o5
o0
v1
n-1.246
n2.0
o2
o2
o2
n0.26484317999999996
o5
v0
n2.0
o5
v1
n2.0
o44
o0
o2
n-8.82
o5
o0
v1
n-1.274
n2.0
o2
n-1.6
o5
o0
v0
n-0.308
n2.0
o2
o2
o2
n0.1216981584
o5
v0
n2.0
o5
v1
n-0.393
o44
o2
n-1.0
v0
o2
o2
o2
n1.13092584
v0
o5
v1
n2.3
o44
o0
o2
n-1.579
o5
o0
v0
n-0.786
n2.0
o2
n-1.724
o5
o0
v1
n-1.05
n2.0
o2
o2
o2
n-0.35721822999999997
o5
v0
n3.0
o5
v1
n1.9
o44
o0
o2
n-26.4
o5
o0
v1
n-1.302
n2.0
o2
n-3.38
o5
o0
v0
n-0.523
n2.0
o2
o2
o2
n-4.31812104
o5
v0
n3.0
o5
v1
n2.16
o44
o16
o5
v0
n2.0
o2
o2
o2
n-1.23694123
o5
v0
n3.0
o5
v1
n0.8999999999999999
o44
o0
o2
n-0.806
o5
o0
v1
n-1.0
n2.0
o2
n-1.098
o5
o0
v0
n-0.496
n2.0
o2
o2
o2
n-1.31743716
o5
v0
n2.0
o5
v1
n1.6
o44
o0
o2
n-0.505
o5
o0
v1
n-0.677
n2.0
o2
n-0.672
o5
o0
v0
n-0.327
n2.0
o2
o2
o2
n-1.4277359800000002
o5
v0
n2.0
o5
v1
n1.2000000000000002
o44
o16
o5
v0
n2.0
o2
o2
o2
n-3.80583585
v0
o5
v1
n1.85
o44
o16
o5
v0
n2.0
o2
o2
o2
o2
n0.08828106
o5
v0
n2.0
o5
v1
n3.0
o0
o2
n-17.64
v1
n22.47336
o44
o0
o2
n-8.82
o5
o0
v1
n-1.274
n2.0
o2
n-1.6
o5
o0
v0
n-0.308
n2.0
o2
o2
o2
o2
n0.3427048
v0
o5
v1
n3.3
o0
o2
n-3.448
v1
n3.6204
o44
o0
o2
n-1.579
o5
o0
v0
n-0.786
n2.0
o2
n-1.724
o5
o0
v1
n-1.05
n2.0
o2
o2
o2
o2
n1.66538
v0
o5
v1
n1.83
o0
o2
n-1.126
v1
n1.402996
o44
o0
o2
n-1.108
o5
o0
v0
n-0.933
n2.0
o2
n-0.563
o5
o0
v1
n-1.246
n2.0
o2
o2
o2
o2
n-0.5067066
o5
v0
n2.0
o5
v1
n2.6
o0
o2
n-1.01
v1
n0.6837700000000001
o44
o0
o2
n-0.505
o5
o0
v1
n-0.677
n2.0
o2
n-0.672
o5
o0
v0
n-0.327
n2.0
o2
o2
o2
o2
n-0.6510217
o5
v0
n3.0
o5
v1
n1.9
o0
o2
n-1.612
v1
n1.612
o44
o0
o2
n-0.806
o5
o0
v1
n-1.0
n2.0
o2
n-1.098
o5
o0
v0
n-0.496
n2.0
o2
o2
o2
o2
n-0.1231787
o5
v0
n3.0
o5
v1
n2.9
o0
o2
n-52.8
v1
n68.7456
o44
o0
o2
n-26.4
o5
o0
v1
n-1.302
n2.0
o2
n-3.38
o5
o0
v0
n-0.523
n2.0
O9 0
o54
36
o2
o2
n-0.30975422371200007
v0
o5
v1
n-1.667
o2
o2
n-0.03022592504
o5
v0
n3.0
o5
v1
n-1.62
o2
o2
o2
n0.5296863599999999
o5
v0
n2.0
v1
o44
o0
o2
n-8.82
o5
o0
v1
n-1.274
n2.0
o2
n-1.6
o5
o0
v0
n-0.308
n2.0
o2
o2
o2
n6.50383536
o5
v0
n3.0
o5
v1
n2.9
o44
o0
o2
n-26.4
o5
o0
v1
n-1.302
n2.0
o2
n-3.38
o5
o0
v0
n-0.523
n2.0
o2
o2
o2
n2.6011294319999996
v0
o5
v1
n1.2999999999999998
o44
o0
o2
n-1.579
o5
o0
v0
n-0.786
n2.0
o2
n-1.724
o5
o0
v1
n-1.05
n2.0
o2
o2
o2
n0.511773666
o5
v0
n2.0
o5
v1
n2.6
o44
o0
o2
n-0.505
o5
o0
v1
n-0.677
n2.0
o2
n-0.672
o5
o0
v0
n-0.327
n2.0
o2
o2
o2
n1.0494469804000002
o5
v0
n3.0
o5
v1
n1.9
o44
o0
o2
n-0.806
o5
o0
v1
n-1.0
n2.0
o2
n-1.098
o5
o0
v0
n-0.496
n2.0
o2
o2
o2
n2.5295456820000006
v0
o5
v1
n-0.16999999999999993
o44
o0
o2
n-1.108
o5
o0
v0
n-0.933
n2.0
o2
n-0.563
o5
o0
v1
n-1.246
n2.0
o2
o2
o2
n-7.0407963225
v0
o5
v1
n0.8500000000000001
o44
o16
o5
v0
n2.0
o2
o2
o2
n-2.107899456
o5
v0
n2.0
o5
v1
n0.6000000000000001
o44
o0
o2
n-0.505
o5
o0
v1
n-0.677
n2.0
o2
n-0.672
o5
o0
v0
n-0.327
n2.0
o2
o2
o2
n-1.1132471069999998
o5
v0
n3.0
o5
v1
n-0.10000000000000009
o44
o0
o2
n-0.806
o5
o0
v1
n-1.0
n2.0
o2
n-1.098
o5
o0
v0
n-0.496
n2.0
o2
o2
o2
n-0.6787146369999999
o5
v0
n3.0
o5
v1
n0.8999999999999999
o44
o0
o2
n-26.4
o5
o0
v1
n-1.302
n2.0
o2
n-3.38
o5
o0
v0
n-0.523
n2.0
o2
o2
o2
n-1.7132831760000005
o5
v0
n2.0
o5
v1
n0.20000000000000018
o44
o16
o5
v0
n2.0
o2
o2
o2
n-9.3271414464
o5
v0
n3.0
o5
v1
n1.1600000000000001
o44
o16
o5
v0
n2.0
o2
o2
o2
n-1.1816461504
v0
o5
v1
n3.3
o44
o0
o2
n-1.579
o5
o0
v0
n-0.786
n2.0
o2
n-1.724
o5
o0
v1
n-1.05
n2.0
o2
o2
o2
n-0.0478273762512
o5
v0
n2.0
o5
v1
n-1.393
o44
o2
n-1.0
v0
o2
o2
o2
n-1.5572778984
o5
v0
n2.0
o5
v1
n3.0
o44
o0
o2
n-8.82
o5
o0
v1
n-1.274
n2.0
o2
n-1.6
o5
o0
v0
n-0.308
n2.0
o2
o2
o2
n-1.87521788
v0
o5
v1
n1.83
o44
o0
o2
n-1.108
o5
o0
v0
n-0.933
n2.0
o2
n-0.563
o5
o0
v1
n-1.246
n2.0
o2
o2
o2
o2
n3.0476454000000004
v0
o5
v1
n0.8300000000000001
o0
o2
n-1.126
v1
n1.402996
o44
o0
o2
n-1.108
o5
o0
v0
n-0.933
n2.0
o2
n-0.563
o5
o0
v1
n-1.246
n2.0
o2
o2
o2
o2
n0.26484317999999996
o5
v0
n2.0
o5
v1
n2.0
o0
o2
n-17.64
v1
n22.47336
o44
o0
o2
n-8.82
o5
o0
v1
n-1.274
n2.0
o2
n-1.6
o5
o0
v0
n-0.308
n2.0
o2
o2
o2
o2
n18.861122543999997
o5
v0
n3.0
o5
v1
n1.9
o0
v1
n-1.302
o44
o0
o2
n-26.4
o5
o0
v1
n-1.302
n2.0
o2
n-3.38
o5
o0
v0
n-0.523
n2.0
o2
o2
o2
o2
n1.9939492627600002
o5
v0
n3.0
o5
v1
n0.8999999999999999
o0
v1
n-1.0
o44
o0
o2
n-0.806
o5
o0
v1
n-1.0
n2.0
o2
n-1.098
o5
o0
v0
n-0.496
n2.0
o2
o2
o2
o2
n1.3306115316000002
o5
v0
n2.0
o5
v1
n1.6
o0
v1
n-0.677
o44
o0
o2
n-0.505
o5
o0
v1
n-0.677
n2.0
o2
n-0.672
o5
o0
v0
n-0.327
n2.0
o2
o2
o2
o2
n1.13092584
v0
o5
v1
n2.3
o0
o2
n-3.448
v1
n3.6204
o44
o0
o2
n-1.579
o5
o0
v0
n-0.786
n2.0
o2
n-1.724
o5
o0
v1
n-1.05
n2.0
o2
o2
o2
o2
n-0.35721822999999997
o5
v0
n3.0
o5
v1
n1.9
o0
o2
n-52.8
v1
n68.7456
o44
o0
o2
n-26.4
o5
o0
v1
n-1.302
n2.0
o2
n-3.38
o5
o0
v0
n-0.523
n2.0
o2
o2
o2
o2
n-3.4316487204
v0
o5
v1
n0.8300000000000001
o0
v1
n-1.246
o44
o0
o2
n-1.108
o5
o0
v0
n-0.933
n2.0
o2
n-0.563
o5
o0
v1
n-1.246
n2.0
o2
o2
o2
o2
n-3.8994322963199997
v0
o5
v1
n2.3
o0
v1
n-1.05
o44
o0
o2
n-1.579
o5
o0
v0
n-0.786
n2.0
o2
n-1.724
o5
o0
v1
n-1.05
n2.0
o2
o2
o2
o2
n-4.671833695199999
o5
v0
n2.0
o5
v1
n2.0
o0
v1
n-1.274
o44
o0
o2
n-8.82
o5
o0
v1
n-1.274
n2.0
o2
n-1.6
o5
o0
v0
n-0.308
n2.0
o2
o2
o2
o2
n-1.23694123
o5
v0
n3.0
o5
v1
n0.8999999999999999
o0
o2
n-1.612
v1
n1.612
o44
o0
o2
n-0.806
o5
o0
v1
n-1.0
n2.0
o2
n-1.098
o5
o0
v0
n-0.496
n2.0
o2
o2
o2
o2
n-1.31743716
o5
v0
n2.0
o5
v1
n1.6
o0
o2
n-1.01
v1
n0.6837700000000001
o44
o0
o2
n-0.505
o5
o0
v1
n-0.677
n2.0
o2
n-0.672
o5
o0
v0
n-0.327
n2.0
o2
o2
o2
o2
o2
n6.50383536
o5
v0
n3.0
o5
v1
n2.9
o0
v1
n-1.302
o0
o2
n-52.8
v1
n68.7456
o44
o0
o2
n-26.4
o5
o0
v1
n-1.302
n2.0
o2
n-3.38
o5
o0
v0
n-0.523
n2.0
o2
o2
o2
o2
o2
n0.511773666
o5
v0
n2.0
o5
v1
n2.6
o0
v1
n-0.677
o0
o2
n-1.01
v1
n0.6837700000000001
o44
o0
o2
n-0.505
o5
o0
v1
n-0.677
n2.0
o2
n-0.672
o5
o0
v0
n-0.327
n2.0
o2
o2
o2
o2
o2
n1.0494469804000002
o5
v0
n3.0
o5
v1
n1.9
o0
v1
n-1.0
o0
o2
n-1.612
v1
n1.612
o44
o0
o2
n-0.806
o5
o0
v1
n-1.0
n2.0
o2
n-1.098
o5
o0
v0
n-0.496
n2.0
o2
o2
o2
o2
o2
n-1.1816461504
v0
o5
v1
n3.3
o0
v1
n-1.05
o0
o2
n-3.448
v1
n3.6204
o44
o0
o2
n-1.579
o5
o0
v0
n-0.786
n2.0
o2
n-1.724
o5
o0
v1
n-1.05
n2.0
o2
o2
o2
o2
o2
n-1.5572778984
o5
v0
n2.0
o5
v1
n3.0
o0
v1
n-1.274
o0
o2
n-17.64
v1
n22.47336
o44
o0
o2
n-8.82
o5
o0
v1
n-1.274
n2.0
o2
n-1.6
o5
o0
v0
n-0.308
n2.0
o2
o2
o2
o2
o2
n-1.87521788
v0
o5
v1
n1.83
o0
v1
n-1.246
o0
o2
n-1.126
v1
n1.402996
o44
o0
o2
n-1.108
o5
o0
v0
n-0.933
n2.0
o2
n-0.563
o5
o0
v1
n-1.246
n2.0
O10 0
o0
o54
37
o2
n0.46439913600000005
o5
v1
n-0.667
o2
n0.12778036
o5
v0
n3.0
o2
o2
n3.0476454000000004
o5
v1
n0.8300000000000001
o44
o0
o2
n-1.108
o5
o0
v0
n-0.933
n2.0
o2
n-0.563
o5
o0
v1
n-1.246
n2.0
o2
o2
n1.13092584
o5
v1
n2.3
o44
o0
o2
n-1.579
o5
o0
v0
n-0.786
n2.0
o2
n-1.724
o5
o0
v1
n-1.05
n2.0
o2
o2
n0.146254476
o5
v1
n-0.62
o5
v0
n2.0
o2
o2
n0.02220033
o5
v0
n7.0
o44
o2
n-1.0
v0
o2
o2
n-0.15540231000000002
o5
v0
n6.0
o44
o2
n-1.0
v0
o2
o2
n-3.80583585
o5
v1
n1.85
o44
o16
o5
v0
n2.0
o2
o2
o2
n0.5296863599999999
v0
o5
v1
n2.0
o44
o0
o2
n-8.82
o5
o0
v1
n-1.274
n2.0
o2
n-1.6
o5
o0
v0
n-0.308
n2.0
o2
o2
o2
n0.2433963168
v0
o5
v1
n-0.393
o44
o2
n-1.0
v0
o2
o2
o2
n8.63624208
o5
v1
n2.16
o5
v0
n4.0
o44
o16
o5
v0
n2.0
o2
o2
o2
n2.8554719600000005
o5
v1
n1.2000000000000002
o5
v0
n3.0
o44
o16
o5
v0
n2.0
o2
o2
o2
n7.6116717
o5
v1
n1.85
o5
v0
n2.0
o44
o16
o5
v0
n2.0
o2
o2
o2
n-12.95436312
o5
v1
n2.16
o5
v0
n2.0
o44
o16
o5
v0
n2.0
o2
o2
o2
n-0.1216981584
o5
v1
n-0.393
o5
v0
n2.0
o44
o2
n-1.0
v0
o2
o2
o2
n-1.0716546900000001
o5
v1
n1.9
o5
v0
n2.0
o44
o0
o2
n-26.4
o5
o0
v1
n-1.302
n2.0
o2
n-3.38
o5
o0
v0
n-0.523
n2.0
o2
o2
o2
n-1.1816461504
o5
v1
n3.3
o0
v1
n-1.05
o44
o0
o2
n-1.579
o5
o0
v0
n-0.786
n2.0
o2
n-1.724
o5
o0
v1
n-1.05
n2.0
o2
o2
o2
n-2.63487432
v0
o5
v1
n1.6
o44
o0
o2
n-0.505
o5
o0
v1
n-0.677
n2.0
o2
n-0.672
o5
o0
v0
n-0.327
n2.0
o2
o2
o2
n-2.8554719600000005
v0
o5
v1
n1.2000000000000002
o44
o16
o5
v0
n2.0
o2
o2
o2
n-3.7108236900000002
o5
v1
n0.8999999999999999
o5
v0
n2.0
o44
o0
o2
n-0.806
o5
o0
v1
n-1.0
n2.0
o2
n-1.098
o5
o0
v0
n-0.496
n2.0
o2
o2
o2
n-1.87521788
o5
v1
n1.83
o0
v1
n-1.246
o44
o0
o2
n-1.108
o5
o0
v0
n-0.933
n2.0
o2
n-0.563
o5
o0
v1
n-1.246
n2.0
o2
o2
o2
o2
n3.0476454000000004
v0
o5
v1
n0.8300000000000001
o0
o2
n-2.216
v0
n2.0675280000000003
o44
o0
o2
n-1.108
o5
o0
v0
n-0.933
n2.0
o2
n-0.563
o5
o0
v1
n-1.246
n2.0
o2
o2
o2
o2
n0.26484317999999996
o5
v1
n2.0
o5
v0
n2.0
o0
o2
n-3.2
v0
n0.9856
o44
o0
o2
n-8.82
o5
o0
v1
n-1.274
n2.0
o2
n-1.6
o5
o0
v0
n-0.308
n2.0
o2
o2
o2
o2
n1.023547332
v0
o5
v1
n2.6
o0
v1
n-0.677
o44
o0
o2
n-0.505
o5
o0
v1
n-0.677
n2.0
o2
n-0.672
o5
o0
v0
n-0.327
n2.0
o2
o2
o2
o2
n1.13092584
v0
o5
v1
n2.3
o0
o2
n-3.158
v0
n2.482188
o44
o0
o2
n-1.579
o5
o0
v0
n-0.786
n2.0
o2
n-1.724
o5
o0
v1
n-1.05
n2.0
o2
o2
o2
o2
n19.51150608
o5
v1
n2.9
o5
v0
n2.0
o0
v1
n-1.302
o44
o0
o2
n-26.4
o5
o0
v1
n-1.302
n2.0
o2
n-3.38
o5
o0
v0
n-0.523
n2.0
o2
o2
o2
o2
n3.1483409412000003
o5
v1
n1.9
o5
v0
n2.0
o0
v1
n-1.0
o44
o0
o2
n-0.806
o5
o0
v1
n-1.0
n2.0
o2
n-1.098
o5
o0
v0
n-0.496
n2.0
o2
o2
o2
o2
n-0.35721822999999997
o5
v1
n1.9
o5
v0
n3.0
o0
o2
n-6.76
v0
n3.53548
o44
o0
o2
n-26.4
o5
o0
v1
n-1.302
n2.0
o2
n-3.38
o5
o0
v0
n-0.523
n2.0
o2
o2
o2
o2
n-1.23694123
o5
v1
n0.8999999999999999
o5
v0
n3.0
o0
o2
n-2.196
v0
n1.0892160000000002
o44
o0
o2
n-0.806
o5
o0
v1
n-1.0
n2.0
o2
n-1.098
o5
o0
v0
n-0.496
n2.0
o2
o2
o2
o2
n-1.31743716
o5
v1
n1.6
o5
v0
n2.0
o0
o2
n-1.344
v0
n0.43948800000000005
o44
o0
o2
n-0.505
o5
o0
v1
n-0.677
n2.0
o2
n-0.672
o5
o0
v0
n-0.327
n2.0
o2
o2
o2
o2
n-3.1145557968
v0
o5
v1
n3.0
o0
v1
n-1.274
o44
o0
o2
n-8.82
o5
o0
v1
n-1.274
n2.0
o2
n-1.6
o5
o0
v0
n-0.308
n2.0
o2
o2
o2
o2
o2
n6.50383536
o5
v1
n2.9
o5
v0
n3.0
o0
v1
n-1.302
o0
o2
n-6.76
v0
n3.53548
o44
o0
o2
n-26.4
o5
o0
v1
n-1.302
n2.0
o2
n-3.38
o5
o0
v0
n-0.523
n2.0
o2
o2
o2
o2
o2
n0.511773666
o5
v1
n2.6
o5
v0
n2.0
o0
v1
n-0.677
o0
o2
n-1.344
v0
n0.43948800000000005
o44
o0
o2
n-0.505
o5
o0
v1
n-0.677
n2.0
o2
n-0.672
o5
o0
v0
n-0.327
n2.0
o2
o2
o2
o2
o2
n1.0494469804000002
o5
v1
n1.9
o5
v0
n3.0
o0
v1
n-1.0
o0
o2
n-2.196
v0
n1.0892160000000002
o44
o0
o2
n-0.806
o5
o0
v1
n-1.0
n2.0
o2
n-1.098
o5
o0
v0
n-0.496
n2.0
o2
o2
o2
o2
o2
n-1.1816461504
v0
o5
v1
n3.3
o0
v1
n-1.05
o0
o2
n-3.158
v0
n2.482188
o44
o0
o2
n-1.579
o5
o0
v0
n-0.786
n2.0
o2
n-1.724
o5
o0
v1
n-1.05
n2.0
o2
o2
o2
o2
o2
n-1.5572778984
o5
v1
n3.0
o5
v0
n2.0
o0
v1
n-1.274
o0
o2
n-3.2
v0
n0.9856
o44
o0
o2
n-8.82
o5
o0
v1
n-1.274
n2.0
o2
n-1.6
o5
o0
v0
n-0.308
n2.0
o2
o2
o2
o2
o2
n-1.87521788
v0
o5
v1
n1.83
o0
v1
n-1.246
o0
o2
n-2.216
v0
n2.0675280000000003
o44
o0
o2
n-1.108
o5
o0
v0
n-0.933
n2.0
o2
n-0.563
o5
o0
v1
n-1.246
n2.0
n-2.300799
O11 0
o0
o54
6
o2
n2.8054215733649555
o5
o0
o16
o3
n1
v1
n1
n0.414
o2
n-0.5782847268115662
o5
o0
o16
o3
n1
v1
n1
n0.901
o2
n6.657750631664868
o5
o0
o16
o3
n1
v1
n1
n2.913
o2
n-28488.415580838606
o5
o0
o16
o3
n1
v1
n1
n8.026
o2
n68499.04449007797
o5
o0
o16
o3
n1
v1
n1
n8.631
o2
n-85980.39928084945
o5
o0
o16
o3
n1
v1
n1
n10.213
n1.0
O12 0
o44
o2
v1
o54
6
o2
n-3.8008160798898456
o5
o0
o16
o3
n1
v1
n1
n0.43
o2
n-1.14790031265839
o5
o0
o16
o3
n1
v1
n1
n0.95
o2
n-281.54354036613495
o5
o0
o16
o3
n1
v1
n1
n4.5
o2
n6472.299051044157
o5
o0
o16
o3
n1
v1
n1
n6.507
o2
n-1985193.1508489654
o5
o0
o16
o3
n1
v1
n1
n8.994
o2
n2037392.973112241
o5
o0
o16
o3
n1
v1
n1
n9.048
O13 0
n0.0
x2
0 1.00000001
1 1.0
r
b
3
3
k1
0
G0 2
0 0
1 8.190539844
G1 1
0 0
G2 1
0 0
G3 1
1 0
G4 1
1 0
G5 2
0 0
1 0
G6 2
0 0
1 -2.300799
G7 2
0 0
1 -0.5113386
G8 2
0 -2.300799
1 0
G9 2
0 0
1 0
G10 2
0 -0.5113386
1 0
G11 1
1 0
G12 1
1 0
